n = 37;
lu = [|-510, -306
      |-1263, 209
      |-571, -466
      |251, 935
      |-1348, 1276
      |-326, 89
      |-1258, -639
      |-1068, -165
      |-1334, 131
      |-927, 367
      |55, 360
      |-972, 235
      |733, 1008
      |-276, -142
      |-1097, 515
      |-315, 395
      |-56, 997
      |-1367, 946
      |-1183, 1300
      |-599, 1169
      |601, 1170
      |1165, 1226
      |-86, 191
      |-212, 218
      |68, 1304
      |-813, 592
      |399, 804
      |-1080, -663
      |-188, -150
      |-963, -405
      |258, 566
      |-1008, 732
      |-1231, 340
      |-1302, 1357
      |-1352, 344
      |991, 1111
      |1049, 1290|];
